n=20;
a=[7,4,7,9,3,9,2,10,10,7,10,2,7,2,5,7,6,4,5,3];
b=[0,0,0,3,0,4,0,0,4,0,0,1,0,1,2,0,4,3,4,2,0,0,4,0,0,1,2,4,0,3,0,0,0,0,1,0,0,0,0,2,0,4,0,2,0,0,2,1,0,0,0,0,0,0,0,0,3,4,2,2,3,0,2,0,2,4,2,4,0,0,0,0,4,0,1,0,4,0,0,0,0,0,0,2,0,2,0,0,0,2,0,2,0,0,0,0,3,0,0,1,4,1,0,4,2,0,0,0,0,2,0,0,1,0,0,2,3,0,2,0,0,2,2,2,0,0,0,1,0,0,0,1,2,1,2,0,2,1,2,0,0,4,1,4,0,0,1,0,0,0,0,0,1,0,1,0,0,0,0,1,4,0,0,0,0,0,0,0,0,3,0,2,0,1,0,0,0,0,0,0,0,3,0,0,2,2,0,0,3,0,1,0,0,1,1,1,0,0,0,1,0,0,0,0,0,0,0,0,0,1,0,0,0,0,0,1,1,0,0,0,1,0,0,0,2,0,1,0,2,0,0,0,0,0,1,0,1,2,1,0,0,0,0,4,0,1,2,1,0,0,0,0,0,2,0,4,4,4,3,2,1,0,0,0,0,0,1,0,1,1,0,0,2,0,0,0,0,0,1,0,2,1,0,1,0,0,2,1,0,1,0,1,0,0,0,2,0,1,1,0,0,0,0,0,0,2,0,0,0,1,1,0,4,0,2,0,1,0,0,1,4,0,3,4,3,3,2,0,0,0,1,1,4,0,0,1,0,1,4,0,3,0,4,0,0,0,1,0,0,0,0,2,4,0,1,0,1,0,0,1,4,0,2,0,0,2,2,0,0,0,0,1,3,1,1,0,4,0,0,0,2,2,2,0,1,0,0,1,0,1,0,0,2,0,0,1,0,1,0,0];
